249 1000
1 359
2 300
3 341
4 465
5 264
6 271
7 384 16 33 36 58 59 130 71 76 78 86 97 99 105 117 123 129 138 139 140 148 149 152 154 164 188 190 191 198 199 202 212 218 224 226 231 232 233 243 248
8 250
9 366
10 368
11 260
12 372
13 412
14 287
15 301
16 402 33 36 58 78 86 97 123 129 138 139 140 148 149 152 154 164 188 190 191 198 199 202 218 224 231 232 233 243 248
17 263
18 335
19 489
20 250 231
21 261
22 357
23 269
24 374
25 468
26 258
27 274 129 139 140 154 190 224 231 243
28 490
29 254
30 256
31 415
32 276
33 309 36 58 59 130 71 76 78 84 86 97 99 105 117 123 129 138 139 140 148 149 152 154 164 188 190 191 198 199 202 212 218 224 226 231 232 233 243 248
34 376
35 308
36 316 58 78 97 129 138 139 140 148 149 152 154 188 190 191 198 199 202 218 224 231 233 243 248
37 487
38 254
39 259
40 431
41 258
42 311
43 492
44 253
45 255 129 139 140 190 224 231 243
46 402
47 255
48 343
49 436
50 268
51 296
52 494
53 250
54 256
55 470 231 243
56 261
57 269
58 464 59 130 71 76 78 84 86 97 99 105 117 123 129 138 139 140 148 149 152 154 164 175 188 190 191 198 199 202 212 218 224 226 231 232 233 243 248
59 261 78 97 129 139 140 152 154 190 224 231 243
60 275
61 441
62 268
63 291
64 460
65 263
66 277
67 378
68 290
69 332
70 477
71 250 78 97 129 139 140 148 152 154 190 191 224 231 233 243
72 273
73 472
74 260
75 268
76 415 78 97 129 139 140 152 154 190 224 231 243
77 261
78 324 130 84 86 97 99 105 117 123 129 138 139 140 148 149 152 154 164 175 188 190 191 198 199 202 212 218 224 226 231 232 233 243 248
79 471
80 256
81 273
82 390
83 258
84 352 129 139 140 152 154 190 224 231 243
85 417
86 274 97 129 138 139 140 148 149 152 154 188 190 191 199 218 224 231 233 243
87 309
88 385
89 301
90 314
91 440
92 258
93 302
94 381
95 277 129 140 190 224 231 243
96 342
97 436 130 105 117 123 129 138 139 140 148 149 152 154 164 188 190 191 198 199 202 212 218 224 226 231 232 233 243 248
98 261
99 303 129 139 140 152 154 190 224 231 243
100 359
101 292
102 349
103 378
104 275
105 347 129 139 140 148 152 154 188 190 191 224 231 233 243
106 492
107 252
108 256
109 367
110 309
111 324
112 443
113 275
114 282
115 366
116 276
117 358 129 139 140 148 152 154 190 191 224 231 233 243
118 417
119 257
120 326
121 416
122 288
123 296 129 138 139 140 148 149 152 154 188 190 191 198 199 218 224 231 233 243
124 498
125 250
126 252
127 377
128 297
129 326 130 137 138 139 140 148 149 152 154 164 172 175 181 188 190 191 198 199 202 204 212 218 224 226 231 232 233 243 248
130 460 139 140 148 152 154 188 190 191 224 231 233 243
131 252
132 288
133 482
134 250
135 268
136 480
137 257 139 140 190 224 231 243
138 263 139 140 148 149 152 154 164 188 190 191 198 199 202 212 218 224 231 232 233 243 248
139 352 140 148 149 152 154 164 175 181 188 190 191 198 199 202 204 212 218 224 226 231 232 233 243 248
140 254 148 149 152 154 159 164 172 175 181 188 190 191 198 199 202 204 212 218 224 226 231 232 233 243 248
141 394
142 435
143 260
144 305
145 365
146 286
147 349
148 385 149 152 154 164 188 190 191 198 199 202 212 218 224 226 231 232 233 243 248
149 285 152 154 164 188 190 191 198 199 202 218 224 231 232 233 243 248
150 330
151 435
152 277 154 164 188 190 191 198 199 202 212 218 224 226 231 232 233 243 248
153 288
154 352 164 175 188 190 191 198 199 202 212 218 224 226 231 232 233 243 248
155 323
156 325
157 484
158 253
159 263 231 243
160 402
161 259
162 339 231 243
163 399
164 295 188 190 191 198 199 218 224 231 233 243
165 306
166 355
167 266
168 379
169 362
170 281
171 357
172 493 190 224 231 243
173 251
174 256
175 424 190 224 231 243
176 285
177 291
178 385
179 282
180 333
181 386 190 224 231 243
182 274
183 340
184 400
185 264
186 336
187 358
188 280 190 191 198 199 202 212 218 224 231 232 233 243 248
189 362
190 398 191 198 199 202 204 212 218 224 226 231 232 233 243 248
191 290 198 199 202 212 218 224 226 231 232 233 243 248
192 312
193 398
194 283
195 319
196 363
197 309
198 328 199 202 218 224 231 232 233 243 248
199 365 202 218 224 231 232 233 243 248
200 260
201 375
202 435 218 224 231 232 233 243 248
203 268
204 297 224 231 243
205 372
206 275
207 353
208 377
209 296
210 327
211 442
212 262 224 231 233 243
213 296
214 354
215 260
216 386
217 352
218 282 224 231 232 233 243 248
219 366
220 352
221 268
222 380
223 350
224 289 226 231 232 233 243 248
225 361
226 456 231 233 243
227 263
228 281
229 427
230 260
231 313 232 233 243 248
232 426 233 243 248
233 257 243 248
234 317
235 427
236 258
237 315
238 407
239 262
240 331
241 462
242 260
243 278 248
244 355
245 279
246 366
247 454
248 251
249 295
